data/benchmarks/bayes/75-12-6-q.cnf
p cnf 672 693
c weights 0.0374803 0.9625197 1 1 1 1 1 1 1 1 1 1 1 1 1 1 1 1 1 1 1 1 1 1 1 1 1 1 1 1 1 1 1 1 1 1 1 1 1 1 1 1 1 1 1 1 1 1 1 1 1 1 1 1 1 1 1 1 1 1 1 1 1 1 1 1 1 1 1 1 1 1 1 1 1 1 1 1 1 1 1 1 1 1 1 1 1 1 1 1 1 1 1 1 1 1 1 1 1 1 1 1 1 1 1 1 1 1 1 1 1 1 1 1 1 1 1 1 1 1 1 1 1 1 1 1 1 1 1 1 1 1 1 1 1 1 1 1 1 1 1 1 1 1 1 1 1 1 1 1 1 1 1 1 1 1 1 1 1 1 1 1 1 1 1 1 1 1 1 1 1 1 1 1 1 1 1 1 1 1 1 1 1 1 1 1 1 1 1 1 1 1 1 1 1 1 1 1 1 1 1 1 1 1 1 1 1 1 1 1 1 1 1 1 1 1 1 1 1 1 1 1 1 1 1 1 1 1 1 1 1 1 1 1 1 1 1 1 1 1 1 1 1 1 1 1 1 1 1 1 1 1 1 1 1 1 1 1 1 1 1 1 1 1 1 1 1 1 1 1 1 1 1 1 1 1 1 1 1 1 1 1 1 1 1 1 1 1 0.5 0.5 0.5 0.5 0.244968 0.755032 0.268139 0.731861 0.0645196 0.9354804 0.6442 0.3558 0.5 0.5 0.5 0.5 0.5 0.5 0.5 0.5 0.5 0.5 0.5 0.5 0.5 0.5 0.5 0.5 0.5 0.5 0.5 0.5 0.907112 0.09288799999999997 0.724952 0.27504799999999996 0.785653 0.21434699999999995 0.125111 0.874889 0.0576259 0.9423741 0.413727 0.586273 0.5 0.5 0.5 0.5 0.5 0.5 0.5 0.5 0.5 0.5 0.5 0.5 0.5 0.5 0.5 0.5 0.5 0.5 0.5 0.5 0.5 0.5 0.5 0.5 0.5 0.5 0.5 0.5 0.615386 0.384614 0.341076 0.6589240000000001 0.781208 0.218792 0.175021 0.824979 0.5 0.5 0.5 0.5 0.5 0.5 0.5 0.5 0.5 0.5 0.5 0.5 0.5 0.5 0.5 0.5 0.502923 0.497077 0.278305 0.721695 0.626717 0.37328300000000003 0.166225 0.8337749999999999 0.5 0.5 0.5 0.5 0.5 0.5 0.5 0.5 0.74101 0.25899000000000005 0.727573 0.272427 0.432628 0.567372 0.549698 0.450302 0.5 0.5 0.5 0.5 0.5 0.5 0.5 0.5 0.5 0.5 0.5 0.5 0.5 0.5 0.5 0.5 0.5 0.5 0.5 0.5 0.586902 0.41309799999999997 0.186871 0.813129 0.0128204 0.9871796 0.399169 0.600831 0.5 0.5 0.5 0.5 0.5 0.5 0.5 0.5 0.5 0.5 0.5 0.5 0.5 0.5 0.5 0.5 0.5 0.5 0.5 0.5 0.5 0.5 0.5 0.5 0.488581 0.5114190000000001 0.638862 0.36113799999999996 0.100401 0.899599 0.567267 0.43273300000000003 0.5 0.5 0.5 0.5 0.5 0.5 0.5 0.5 0.5 0.5 0.5 0.5 0.5 0.5 0.5 0.5 0.5 0.5 0.5 0.5 0.5 0.5 0.5 0.5 0.5 0.5 0.5 0.5 0.5 0.5 0.5 0.5 0.5 0.5 0.5 0.5 0.5 0.5 0.5 0.5 0.5 0.5 0.5 0.5 0.5 0.5 0.5 0.5 0.5 0.5 0.5 0.5 0.5 0.5 0.5 0.5 0.5 0.5 0.5 0.5 0.5 0.5 0.5 0.5 0.5 0.5 0.5 0.5 0.5 0.5 0.5 0.5 0.5 0.5 0.5 0.5 0.5 0.5 0.5 0.5 0.5 0.5 0.5 0.5 0.146817 0.853183 0.318654 0.681346 0.591147 0.408853 0.352738 0.647262 0.5 0.5 0.5 0.5 0.5 0.5 0.5 0.5 0.201045 0.798955 0.322143 0.6778569999999999 0.720404 0.27959599999999996 0.442381 0.557619 0.467972 0.532028 0.0412888 0.9587112 0.7342 0.26580000000000004 0.484666 0.515334 0.5 0.5 0.5 0.5 0.5 0.5 0.5 0.5 0.5 0.5 0.5 0.5 0.5 0.5 0.5 0.5 0.5 0.5 0.5 0.5 0.5 0.5 0.5 0.5 0.5 0.5 0.5 0.5 0.5 0.5 0.5 0.5 0.5 0.5 0.5 0.5 0.5 0.5 0.5 0.5 0.5 0.5 0.5 0.5 0.209704 0.790296 0.73915 0.26085 0.365266 0.634734 0.233359 0.766641 0.5 0.5 0.5 0.5 0.5 0.5 0.5 0.5 0.5 0.5 0.5 0.5 0.5 0.5 0.5 0.5 0.5 0.5 0.5 0.5 0.5 0.5 0.5 0.5 0.547586 0.452414 0.222894 0.777106 0.516314 0.48368599999999995 0.239809 0.7601910000000001 0.524303 0.47569700000000004 0.652437 0.34756299999999996 0.117343 0.882657 0.529253 0.470747 0.5 0.5 0.5 0.5 0.5 0.5 0.5 0.5 0.5 0.5 0.5 0.5 0.5 0.5 0.5 0.5 0.265489 0.734511 0.205204 0.7947960000000001 0.761145 0.23885500000000004 0.756319 0.24368100000000004 0.5 0.5 0.5 0.5 0.771982 0.22801800000000005 0.778595 0.22140499999999996 0.545253 0.454747 0.60245 0.39754999999999996 0.5 0.5 0.5 0.5 0.5 0.5 0.5 0.5 0.5 0.5 0.5 0.5 0.5 0.5 0.5 0.5 0.5 0.5 0.5 0.5 0.5 0.5 0.5 0.5 0.5 0.5 0.5 0.5 0.5 0.5 0.5 0.5 0.5 0.5 0.5 0.5 0.5 0.5 0.5 0.5 0.5 0.5 0.5 0.5 0.5 0.5 0.5 0.5 0.270725 0.729275 0.0769124 0.9230876 0.998229 0.001770999999999967 0.836715 0.163285 0.641296 0.358704 0.0551421 0.9448579 0.628407 0.37159299999999995 0.813615 0.18638500000000002 0.789874 0.21012600000000003 0.254337 0.745663 0.456372 0.543628 0.511746 0.48825399999999997 0.5 0.5 0.5 0.5 0.5 0.5 0.5 0.5 0.5 0.5 0.5 0.5 0.77801 0.22199000000000002 0.0628551 0.9371449000000001 0.269654 0.7303459999999999 0.943959 0.05604100000000001 0.54667 0.45333 0.888503 0.11149699999999996 0.135132 0.864868 0.426136 0.5738639999999999 0.5 0.5 0.5 0.5 0.5 0.5 0.5 0.5 0.5 0.5 0.5 0.5 0.5 0.5 0.5 0.5 0.5 0.5 0.5 0.5 0.5 0.5 0.5 0.5 0.5 0.5 0.5 0.5 0.5 0.5 0.5 0.5 0.5 0.5 0.5 0.5 0.5 0.5 0.5 0.5 0.5 0.5 0.5 0.5 0.5 0.5 0.5 0.5 0.5 0.5 0.5 0.5 0.5 0.5 0.5 0.5 0.5 0.5 0.5 0.5 0.5 0.5 0.5 0.5 0.66106 0.33894 0.596883 0.40311699999999995 0.091728 0.908272 0.149693 0.850307 0.5 0.5 0.5 0.5 0.5 0.5 0.5 0.5 0.5 0.5 0.5 0.5 0.5 0.5 0.5 0.5 0.5 0.5 0.5 0.5 0.5 0.5 0.5 0.5 0.5 0.5 0.5 0.5 0.5 0.5 0.5 0.5 0.5 0.5 0.5 0.5 0.5 0.5 0.5 0.5 0.5 0.5 0.5 0.5 0.412003 0.587997 0.643914 0.356086 0.013291 0.986709 0.0969999 0.9030001 0.51861 0.48139 0.45457 0.5454300000000001 0.612911 0.387089 0.144176 0.855824 0.5 0.5 0.5 0.5 0.5 0.5 0.5 0.5 0.75508 0.24492000000000003 0.426428 0.573572 0.879182 0.12081799999999998 0.0707931 0.9292069000000001 0.5 0.5 0.5 0.5 0.5 0.5 0.5 0.5 0.5 0.5 0.5 0.5 0.5 0.5 0.5 0.5 0.5 0.5 0.5 0.5 0.5 0.5 0.5 0.5 0.5 0.5 0.5 0.5 0.926962 0.07303800000000005 0.843176 0.15682399999999996 0.184289 0.815711 0.626689 0.37331099999999995 0.5 0.5 0.5 0.5 0.5 0.5 0.5 0.5 0.5 0.5 0.5 0.5 0.5 0.5 0.5 0.5 0.5 0.5 0.5 0.5 0.5 0.5 0.5 0.5 0.5 0.5 0.5 0.5 0.5 0.5 0.5 0.5 0.808338 0.191662 0.477427 0.522573 0.414402 0.5855980000000001 0.122389 0.877611 0.5 0.5 0.5 0.5 0.5 0.5 0.5 0.5 0.5 0.5 0.5 0.5 0.5 0.5 0.5 0.5 0.755309 0.244691 0.677856 0.322144 0.250896 0.749104 0.243277 0.756723 0.5 0.5 0.5 0.5 0.5 0.5 0.5 0.5 0.5 0.5 0.5 0.5 0.463223 0.5367770000000001 0.229786 0.770214 0.864058 0.135942 0.271561 0.7284390000000001 0.5 0.5 0.5 0.5 0.5 0.5 0.5 0.5 0.5 0.5 0.5 0.5 0.5 0.5 0.5 0.5 0.5 0.5 0.5 0.5 0.5 0.5 0.5 0.5 0.5 0.5 0.5 0.5 0.5 0.5 0.5 0.5 0.105566 0.894434 0.515124 0.484876 0.806833 0.19316699999999998 0.0383144 0.9616856 0.5 0.5 0.5 0.5 0.5 0.5 0.5 0.5 0.5 0.5 0.5 0.5 0.5 0.5 0.5 0.5 0.323403 0.676597 0.498207 0.5017929999999999 0.687862 0.312138 0.628053 0.371947 0.750454 0.24954600000000005 0.703541 0.29645900000000003 0.168462 0.831538 0.490902 0.509098 0.5 0.5 0.5 0.5 0.5 0.5 0.5 0.5 0.438248 0.561752 0.315528 0.684472 0.5 0.5 0.5 0.5 0.5 0.5 0.5 0.5 0.5 0.5 0.5 0.5 0.5 0.5 0.5 0.5 0.697814 0.30218599999999995 0.341125 0.658875 0.129554 0.870446 0.196021 0.803979 0.5 0.5 0.5 0.5 0.5 0.5 0.5 0.5 0.5 0.5 0.5 0.5 0.5 0.5 0.5 0.5 0.745089 0.254911 0.0135977 0.9864023 0.262005 0.737995 0.0606168 0.9393832 0.5 0.5 0.5 0.5 0.5 0.5 0.5 0.5 0.810446 0.189554 0.203206 0.796794 0.468488 0.531512 0.129393 0.870607 0.274639 0.7253609999999999 0.827207 0.17279299999999997 0.12326 0.87674 0.404194 0.5958060000000001 0.5 0.5 0.5 0.5 0.5 0.5 0.5 0.5 0.5 0.5 0.5 0.5 0.5 0.5 0.5 0.5 0.5 0.5 0.5 0.5 0.5 0.5 0.5 0.5 0.5 0.5 0.5 0.5 0.0534017 0.9465983 0.476721 0.523279 0.421583 0.578417 0.904459 0.09554099999999999 0.5 0.5 0.5 0.5 0.5 0.5 0.5 0.5 0.5 0.5 0.5 0.5 0.5 0.5 0.5 0.5 0.5 0.5 0.5 0.5 0.5 0.5 0.5 0.5 0.816145 0.183855 0.950553 0.04944700000000002 0.37679 0.62321 0.266898 0.7331019999999999 0.561654 0.438346 0.731249 0.26875099999999996 0.088117 0.911883 0.807135 0.19286499999999995 0.0264691 0.9735309 0.860537 0.139463 0.257625 0.742375 0.448052 0.551948 0.544792 0.45520799999999995 0.0728411 0.9271589 0.137944 0.8620559999999999 0.961351 0.038649000000000044 0.5 0.5 0.5 0.5 0.5 0.5 0.5 0.5 0.5 0.5 0.5 0.5 0.5 0.5 0.5 0.5
-1 2 0
1 -2 0
-2 -147 3 0
-2 147 -3 0
2 -148 3 0
2 148 -3 0
-3 -149 4 0
-3 149 -4 0
3 -150 4 0
3 150 -4 0
-4 -5 0
4 5 0
-5 -6 0
5 6 0
-6 7 0
6 -7 0
-7 8 0
7 -8 0
-8 -9 0
8 9 0
-9 -161 10 0
-9 161 -10 0
9 -162 10 0
9 162 -10 0
-10 -163 11 0
-10 163 -11 0
10 -164 11 0
10 164 -11 0
-11 -165 12 0
-11 165 -12 0
11 -166 12 0
11 166 -12 0
-1 13 0
1 -13 0
-13 -2 -14 0
-13 2 -14 0
13 -2 14 0
13 2 14 0
-14 -3 -15 0
-14 3 -15 0
14 -3 15 0
14 3 15 0
-15 -4 16 0
-15 4 -16 0
15 -4 -16 0
15 4 -16 0
-16 -5 -181 17 0
-16 -5 181 -17 0
-16 5 -182 17 0
-16 5 182 -17 0
16 -5 -183 17 0
16 -5 183 -17 0
16 5 -184 17 0
16 5 184 -17 0
-17 -6 18 0
-17 6 18 0
17 -6 -18 0
17 6 -18 0
-18 -7 19 0
-18 7 19 0
18 -7 -19 0
18 7 19 0
-19 -8 -193 20 0
-19 -8 193 -20 0
-19 8 -194 20 0
-19 8 194 -20 0
19 -8 -195 20 0
19 -8 195 -20 0
19 8 -196 20 0
19 8 196 -20 0
-20 -9 -21 0
-20 9 21 0
20 -9 21 0
20 9 21 0
-21 -10 -201 22 0
-21 -10 201 -22 0
-21 10 -202 22 0
-21 10 202 -22 0
21 -10 -203 22 0
21 -10 203 -22 0
21 10 -204 22 0
21 10 204 -22 0
-22 -11 -23 0
-22 11 23 0
22 -11 -23 0
22 11 -23 0
-23 -12 -24 0
-23 12 -24 0
23 -12 24 0
23 12 -24 0
-13 -25 0
13 25 0
-25 -14 -215 26 0
-25 -14 215 -26 0
-25 14 -216 26 0
-25 14 216 -26 0
25 -14 -217 26 0
25 -14 217 -26 0
25 14 -218 26 0
25 14 218 -26 0
-26 -15 -27 0
-26 15 -27 0
26 -15 27 0
26 15 27 0
-27 -16 28 0
-27 16 -28 0
27 -16 -28 0
27 16 -28 0
-28 -17 -29 0
-28 17 -29 0
28 -17 -29 0
28 17 29 0
-29 -18 -231 30 0
-29 -18 231 -30 0
-29 18 -232 30 0
-29 18 232 -30 0
29 -18 -233 30 0
29 -18 233 -30 0
29 18 -234 30 0
29 18 234 -30 0
-30 -19 31 0
-30 19 -31 0
30 -19 -31 0
30 19 31 0
-31 -20 32 0
-31 20 32 0
31 -20 -32 0
31 20 32 0
-32 -21 -33 0
-32 21 33 0
32 -21 -33 0
32 21 -33 0
-33 -22 -34 0
-33 22 34 0
33 -22 34 0
33 22 34 0
-34 -23 -35 0
-34 23 35 0
34 -23 -35 0
34 23 -35 0
-35 -24 36 0
-35 24 -36 0
35 -24 36 0
35 24 -36 0
-25 37 0
25 -37 0
-37 -26 -38 0
-37 26 38 0
37 -26 38 0
37 26 38 0
-38 -27 -39 0
-38 27 39 0
38 -27 -39 0
38 27 -39 0
-39 -28 40 0
-39 28 40 0
39 -28 -40 0
39 28 40 0
-40 -29 -41 0
-40 29 41 0
40 -29 -41 0
40 29 -41 0
-41 -30 -277 42 0
-41 -30 277 -42 0
-41 30 -278 42 0
-41 30 278 -42 0
41 -30 -279 42 0
41 -30 279 -42 0
41 30 -280 42 0
41 30 280 -42 0
-42 -31 43 0
-42 31 -43 0
42 -31 -43 0
42 31 43 0
-43 -32 -285 44 0
-43 -32 285 -44 0
-43 32 -286 44 0
-43 32 286 -44 0
43 -32 -287 44 0
43 -32 287 -44 0
43 32 -288 44 0
43 32 288 -44 0
-44 -33 -289 45 0
-44 -33 289 -45 0
-44 33 -290 45 0
-44 33 290 -45 0
44 -33 -291 45 0
44 -33 291 -45 0
44 33 -292 45 0
44 33 292 -45 0
-45 -34 -46 0
-45 34 46 0
45 -34 -46 0
45 34 -46 0
-46 -35 47 0
-46 35 -47 0
46 -35 -47 0
46 35 47 0
-47 -36 -48 0
-47 36 -48 0
47 -36 48 0
47 36 48 0
-37 49 0
37 -49 0
-49 -38 -50 0
-49 38 50 0
49 -38 -50 0
49 38 -50 0
-50 -39 -51 0
-50 39 51 0
50 -39 51 0
50 39 51 0
-51 -40 -315 52 0
-51 -40 315 -52 0
-51 40 -316 52 0
-51 40 316 -52 0
51 -40 -317 52 0
51 -40 317 -52 0
51 40 -318 52 0
51 40 318 -52 0
-52 -41 -53 0
-52 41 -53 0
52 -41 -53 0
52 41 53 0
-53 -42 -54 0
-53 42 -54 0
53 -42 54 0
53 42 -54 0
-54 -43 -55 0
-54 43 -55 0
54 -43 -55 0
54 43 55 0
-55 -44 -331 56 0
-55 -44 331 -56 0
-55 44 -332 56 0
-55 44 332 -56 0
55 -44 -333 56 0
55 -44 333 -56 0
55 44 -334 56 0
55 44 334 -56 0
-56 -45 -335 57 0
-56 -45 335 -57 0
-56 45 -336 57 0
-56 45 336 -57 0
56 -45 -337 57 0
56 -45 337 -57 0
56 45 -338 57 0
56 45 338 -57 0
-57 -46 -58 0
-57 46 58 0
57 -46 -58 0
57 46 -58 0
-58 -47 -59 0
-58 47 -59 0
58 -47 -59 0
58 47 59 0
-59 -48 -347 60 0
-59 -48 347 -60 0
-59 48 -348 60 0
-59 48 348 -60 0
59 -48 -349 60 0
59 -48 349 -60 0
59 48 -350 60 0
59 48 350 -60 0
-49 -61 0
49 61 0
-61 -50 -353 62 0
-61 -50 353 -62 0
-61 50 -354 62 0
-61 50 354 -62 0
61 -50 -355 62 0
61 -50 355 -62 0
61 50 -356 62 0
61 50 356 -62 0
-62 -51 63 0
-62 51 -63 0
62 -51 -63 0
62 51 -63 0
-63 -52 64 0
-63 52 64 0
63 -52 -64 0
63 52 64 0
-64 -53 65 0
-64 53 -65 0
64 -53 65 0
64 53 65 0
-65 -54 66 0
-65 54 66 0
65 -54 66 0
65 54 -66 0
-66 -55 67 0
-66 55 67 0
66 -55 -67 0
66 55 67 0
-67 -56 68 0
-67 56 68 0
67 -56 68 0
67 56 -68 0
-68 -57 -381 69 0
-68 -57 381 -69 0
-68 57 -382 69 0
-68 57 382 -69 0
68 -57 -383 69 0
68 -57 383 -69 0
68 57 -384 69 0
68 57 384 -69 0
-69 -58 -385 70 0
-69 -58 385 -70 0
-69 58 -386 70 0
-69 58 386 -70 0
69 -58 -387 70 0
69 -58 387 -70 0
69 58 -388 70 0
69 58 388 -70 0
-70 -59 -389 71 0
-70 -59 389 -71 0
-70 59 -390 71 0
-70 59 390 -71 0
70 -59 -391 71 0
70 -59 391 -71 0
70 59 -392 71 0
70 59 392 -71 0
-71 -60 -72 0
-71 60 -72 0
71 -60 -72 0
71 60 72 0
-61 -73 0
61 73 0
-73 -62 -399 74 0
-73 -62 399 -74 0
-73 62 -400 74 0
-73 62 400 -74 0
73 -62 -401 74 0
73 -62 401 -74 0
73 62 -402 74 0
73 62 402 -74 0
-74 -63 -403 75 0
-74 -63 403 -75 0
-74 63 -404 75 0
-74 63 404 -75 0
74 -63 -405 75 0
74 -63 405 -75 0
74 63 -406 75 0
74 63 406 -75 0
-75 -64 -76 0
-75 64 76 0
75 -64 76 0
75 64 -76 0
-76 -65 77 0
-76 65 77 0
76 -65 77 0
76 65 -77 0
-77 -66 -78 0
-77 66 -78 0
77 -66 78 0
77 66 -78 0
-78 -67 79 0
-78 67 -79 0
78 -67 -79 0
78 67 -79 0
-79 -68 80 0
-79 68 80 0
79 -68 -80 0
79 68 80 0
-80 -69 -81 0
-80 69 81 0
80 -69 -81 0
80 69 81 0
-81 -70 -82 0
-81 70 -82 0
81 -70 82 0
81 70 -82 0
-82 -71 83 0
-82 71 83 0
82 -71 -83 0
82 71 -83 0
-83 -72 -439 84 0
-83 -72 439 -84 0
-83 72 -440 84 0
-83 72 440 -84 0
83 -72 -441 84 0
83 -72 441 -84 0
83 72 -442 84 0
83 72 442 -84 0
-73 85 0
73 -85 0
-85 -74 -86 0
-85 74 86 0
85 -74 -86 0
85 74 86 0
-86 -75 -87 0
-86 75 -87 0
86 -75 87 0
86 75 -87 0
-87 -76 88 0
-87 76 88 0
87 -76 -88 0
87 76 88 0
-88 -77 -89 0
-88 77 89 0
88 -77 89 0
88 77 -89 0
-89 -78 -90 0
-89 78 -90 0
89 -78 -90 0
89 78 90 0
-90 -79 -465 91 0
-90 -79 465 -91 0
-90 79 -466 91 0
-90 79 466 -91 0
90 -79 -467 91 0
90 -79 467 -91 0
90 79 -468 91 0
90 79 468 -91 0
-91 -80 -469 92 0
-91 -80 469 -92 0
-91 80 -470 92 0
-91 80 470 -92 0
91 -80 -471 92 0
91 -80 471 -92 0
91 80 -472 92 0
91 80 472 -92 0
-92 -81 -93 0
-92 81 93 0
92 -81 -93 0
92 81 -93 0
-93 -82 -477 94 0
-93 -82 477 -94 0
-93 82 -478 94 0
-93 82 478 -94 0
93 -82 -479 94 0
93 -82 479 -94 0
93 82 -480 94 0
93 82 480 -94 0
-94 -83 95 0
-94 83 -95 0
94 -83 95 0
94 83 95 0
-95 -84 -96 0
-95 84 -96 0
95 -84 96 0
95 84 96 0
-85 -97 0
85 97 0
-97 -86 -98 0
-97 86 -98 0
97 -86 98 0
97 86 98 0
-98 -87 -495 99 0
-98 -87 495 -99 0
-98 87 -496 99 0
-98 87 496 -99 0
98 -87 -497 99 0
98 -87 497 -99 0
98 87 -498 99 0
98 87 498 -99 0
-99 -88 100 0
-99 88 -100 0
99 -88 100 0
99 88 -100 0
-100 -89 101 0
-100 89 101 0
100 -89 -101 0
100 89 101 0
-101 -90 102 0
-101 90 102 0
101 -90 -102 0
101 90 -102 0
-102 -91 -103 0
-102 91 103 0
102 -91 -103 0
102 91 103 0
-103 -92 -515 104 0
-103 -92 515 -104 0
-103 92 -516 104 0
-103 92 516 -104 0
103 -92 -517 104 0
103 -92 517 -104 0
103 92 -518 104 0
103 92 518 -104 0
-104 -93 105 0
-104 93 -105 0
104 -93 -105 0
104 93 -105 0
-105 -94 -106 0
-105 94 106 0
105 -94 -106 0
105 94 106 0
-106 -95 -527 107 0
-106 -95 527 -107 0
-106 95 -528 107 0
-106 95 528 -107 0
106 -95 -529 107 0
106 -95 529 -107 0
106 95 -530 107 0
106 95 530 -107 0
-107 -96 108 0
-107 96 108 0
107 -96 108 0
107 96 -108 0
-97 109 0
97 -109 0
-109 -98 -537 110 0
-109 -98 537 -110 0
-109 98 -538 110 0
-109 98 538 -110 0
109 -98 -539 110 0
109 -98 539 -110 0
109 98 -540 110 0
109 98 540 -110 0
-110 -99 -111 0
-110 99 -111 0
110 -99 111 0
110 99 111 0
-111 -100 -112 0
-111 100 112 0
111 -100 -112 0
111 100 -112 0
-112 -101 -113 0
-112 101 113 0
112 -101 -113 0
112 101 -113 0
-113 -102 -114 0
-113 102 114 0
113 -102 114 0
113 102 114 0
-114 -103 -557 115 0
-114 -103 557 -115 0
-114 103 -558 115 0
-114 103 558 -115 0
114 -103 -559 115 0
114 -103 559 -115 0
114 103 -560 115 0
114 103 560 -115 0
-115 -104 116 0
-115 104 -116 0
115 -104 -116 0
115 104 -116 0
-116 -105 -117 0
-116 105 -117 0
116 -105 117 0
116 105 117 0
-117 -106 -569 118 0
-117 -106 569 -118 0
-117 106 -570 118 0
-117 106 570 -118 0
117 -106 -571 118 0
117 -106 571 -118 0
117 106 -572 118 0
117 106 572 -118 0
-118 -107 -573 119 0
-118 -107 573 -119 0
-118 107 -574 119 0
-118 107 574 -119 0
118 -107 -575 119 0
118 -107 575 -119 0
118 107 -576 119 0
118 107 576 -119 0
-119 -108 -120 0
-119 108 120 0
119 -108 120 0
119 108 120 0
-109 -581 121 0
-109 581 -121 0
109 -582 121 0
109 582 -121 0
-121 -110 122 0
-121 110 122 0
121 -110 -122 0
121 110 122 0
-122 -111 123 0
-122 111 -123 0
122 -111 -123 0
122 111 123 0
-123 -112 -591 124 0
-123 -112 591 -124 0
-123 112 -592 124 0
-123 112 592 -124 0
123 -112 -593 124 0
123 -112 593 -124 0
123 112 -594 124 0
123 112 594 -124 0
-124 -113 125 0
-124 113 -125 0
124 -113 -125 0
124 113 -125 0
-125 -114 -126 0
-125 114 -126 0
125 -114 -126 0
125 114 126 0
-126 -115 -603 127 0
-126 -115 603 -127 0
-126 115 -604 127 0
-126 115 604 -127 0
126 -115 -605 127 0
126 -115 605 -127 0
126 115 -606 127 0
126 115 606 -127 0
-127 -116 128 0
-127 116 -128 0
127 -116 -128 0
127 116 -128 0
-128 -117 -611 129 0
-128 -117 611 -129 0
-128 117 -612 129 0
-128 117 612 -129 0
128 -117 -613 129 0
128 -117 613 -129 0
128 117 -614 129 0
128 117 614 -129 0
-129 -118 -615 130 0
-129 -118 615 -130 0
-129 118 -616 130 0
-129 118 616 -130 0
129 -118 -617 130 0
129 -118 617 -130 0
129 118 -618 130 0
129 118 618 -130 0
-130 -119 131 0
-130 119 -131 0
130 -119 131 0
130 119 131 0
-131 -120 -132 0
-131 120 132 0
131 -120 132 0
131 120 -132 0
-121 -133 0
121 133 0
-133 -122 134 0
-133 122 -134 0
133 -122 -134 0
133 122 -134 0
-134 -123 -633 135 0
-134 -123 633 -135 0
-134 123 -634 135 0
-134 123 634 -135 0
134 -123 -635 135 0
134 -123 635 -135 0
134 123 -636 135 0
134 123 636 -135 0
-135 -124 -136 0
-135 124 136 0
135 -124 136 0
135 124 -136 0
-136 -125 137 0
-136 125 137 0
136 -125 -137 0
136 125 -137 0
-137 -126 138 0
-137 126 -138 0
137 -126 138 0
137 126 -138 0
-138 -127 -649 139 0
-138 -127 649 -139 0
-138 127 -650 139 0
-138 127 650 -139 0
138 -127 -651 139 0
138 -127 651 -139 0
138 127 -652 139 0
138 127 652 -139 0
-139 -128 -653 140 0
-139 -128 653 -140 0
-139 128 -654 140 0
-139 128 654 -140 0
139 -128 -655 140 0
139 -128 655 -140 0
139 128 -656 140 0
139 128 656 -140 0
-140 -129 -657 141 0
-140 -129 657 -141 0
-140 129 -658 141 0
-140 129 658 -141 0
140 -129 -659 141 0
140 -129 659 -141 0
140 129 -660 141 0
140 129 660 -141 0
-141 -130 -661 142 0
-141 -130 661 -142 0
-141 130 -662 142 0
-141 130 662 -142 0
141 -130 -663 142 0
141 -130 663 -142 0
141 130 -664 142 0
141 130 664 -142 0
-142 -131 -143 0
-142 131 143 0
142 -131 143 0
142 131 143 0
-143 -132 144 0
-143 132 -144 0
143 -132 144 0
143 132 144 0
144 0
