data/benchmarks/bayes/75-12-6-q.gr
p tw 672 865
55 66
67 68
99 100
10 162
88 100
117 572
70 82
8 9
40 41
29 41
55 331
98 540
92 515
3 150
100 101
118 616
130 618
11 23
121 133
41 42
40 315
41 280
73 74
62 74
93 479
61 356
44 285
50 356
133 134
44 56
140 658
129 658
14 15
3 15
69 387
52 316
58 387
74 75
106 107
95 107
99 495
122 133
141 659
15 16
47 48
36 48
75 403
107 108
96 108
21 203
18 30
128 140
30 233
126 606
21 32
80 81
69 81
140 141
113 124
129 141
10 22
68 381
57 381
81 82
54 65
102 114
103 515
44 289
33 289
5 181
17 183
22 23
87 498
123 591
43 55
112 591
140 653
106 529
95 529
114 115
63 406
51 315
87 98
103 115
115 605
55 56
28 39
92 469
76 88
109 540
2 148
88 99
10 161
29 40
98 539
77 89
3 149
118 615
130 617
139 656
128 656
2 13
41 279
62 73
110 122
61 355
50 355
140 657
129 657
3 14
51 63
35 46
95 106
18 231
36 47
80 471
128 139
30 232
21 22
126 605
69 80
113 114
119 575
139 651
129 616
16 181
10 21
54 55
102 113
115 559
44 288
87 497
17 182
71 391
43 54
87 88
63 405
28 29
17 29
109 539
76 87
88 89
109 121
2 147
74 401
29 30
61 62
50 62
98 538
121 122
129 611
2 3
139 655
128 655
62 63
94 95
83 95
110 121
61 354
3 4
35 36
24 36
5 184
43 287
26 216
32 287
95 96
84 96
127 128
116 128
51 318
19 195
8 195
9 20
68 69
57 69
98 497
80 470
128 129
118 573
107 573
91 467
117 129
30 231
20 196
74 405
127 649
126 604
69 70
42 53
58 70
101 102
90 102
119 574
10 11
139 650
129 615
31 43
70 389
59 389
102 103
75 86
91 103
123 135
115 558
142 661
43 44
16 27
32 44
71 390
64 76
135 136
108 119
124 136
5 17
18 234
17 28
56 337
45 337
76 77
65 77
97 109
91 471
6 18
74 400
57 338
50 61
84 441
98 110
82 93
104 517
39 51
23 34
139 654
16 184
83 94
131 143
115 126
60 348
24 35
72 84
56 67
43 286
26 215
32 286
116 127
106 571
9 10
19 194
8 194
56 332
57 68
98 496
82 479
89 100
135 634
118 572
91 466
74 404
30 41
42 43
128 613
117 613
94 480
90 101
134 135
22 204
129 614
31 42
70 388
75 76
14 218
141 664
123 134
16 17
64 75
5 16
49 50
38 50
56 336
45 336
83 439
109 110
130 142
118 576
107 576
91 470
74 399
59 347
50 51
127 652
82 83
71 83
84 440
138 649
142 143
104 516
23 24
12 24
130 663
70 392
83 84
115 116
104 116
134 633
142 664
56 57
45 57
60 347
116 117
105 117
106 570
57 58
56 331
46 58
73 402
62 402
89 90
78 90
4 150
29 234
82 478
109 581
135 633
91 465
10 202
30 31
19 31
128 612
117 612
30 278
42 280
63 74
90 91
79 91
72 442
25 218
121 582
111 123
22 203
4 15
31 32
20 32
52 64
141 142
48 350
69 382
123 124
112 124
14 217
45 290
64 65
53 65
85 97
44 334
114 560
103 560
124 592
141 663
123 636
11 166
107 530
5 6
26 38
90 468
79 468
117 571
127 606
38 49
97 98
70 81
86 98
118 130
130 141
27 39
11 22
71 82
84 439
119 131
110 540
104 515
93 478
12 23
130 662
60 72
44 55
104 115
69 386
52 315
58 386
1 13
122 123
62 356
45 56
93 105
141 658
106 569
96 107
21 202
18 29
78 89
126 138
4 149
83 442
55 334
92 518
10 201
19 30
129 140
63 64
59 350
30 277
42 279
111 122
72 441
121 581
138 652
40 318
4 5
25 37
52 63
48 349
69 381
134 636
106 528
95 528
103 114
37 38
115 604
45 289
99 498
44 333
141 662
124 591
11 165
107 529
75 406
26 37
127 605
70 71
59 71
117 570
118 129
130 131
77 88
11 12
3 148
130 616
92 104
68 384
57 384
41 278
110 539
93 477
44 45
33 45
50 354
103 518
44 292
33 292
140 656
125 137
51 62
69 385
58 385
123 594
112 594
62 355
66 78
141 657
137 138
92 472
18 19
7 19
21 201
10 164
99 111
55 333
129 130
40 52
118 618
111 112
100 112
132 144
115 606
40 317
73 85
44 287
87 496
17 181
140 660
129 660
103 104
14 26
106 527
95 527
63 404
85 86
115 603
99 497
106 118
141 661
109 538
136 137
47 59
75 405
59 70
117 569
118 119
107 119
77 78
98 537
3 147
130 615
80 92
92 103
128 654
68 383
57 383
41 277
110 538
110 111
33 44
61 353
50 353
81 93
51 52
44 291
33 291
5 183
103 517
125 136
140 655
123 593
84 95
112 593
143 144
62 354
51 317
66 77
114 126
80 469
92 471
117 128
55 67
10 163
20 195
99 110
126 603
58 69
119 573
40 51
118 617
139 649
132 143
91 102
25 26
115 557
44 286
87 495
32 43
71 389
140 659
129 659
14 25
124 135
63 403
17 18
99 496
106 117
18 233
65 76
109 537
47 58
75 404
6 17
30 234
57 337
98 109
21 33
80 91
113 125
39 50
139 653
129 618
16 183
59 392
128 653
131 142
54 66
9 162
13 25
140 654
5 182
17 184
43 285
32 285
72 83
87 99
51 316
19 193
8 193
98 495
117 118
28 40
92 470
118 571
120 132
58 59
20 194
74 403
94 479
61 73
129 613
70 387
91 92
2 14
94 106
32 33
124 125
26 218
35 47
127 139
65 66
18 232
56 335
45 335
68 80
6 7
80 472
118 575
107 575
91 469
139 140
127 651
98 99
57 336
101 113
39 40
119 576
139 652
129 617
16 182
70 391
59 391
131 132
115 560
9 161
142 663
71 392
105 116
46 57
73 401
62 401
82 477
29 233
118 570
120 131
20 193
74 402
128 611
79 90
117 611
94 478
25 217
22 202
20 31
129 612
70 386
112 123
14 216
94 105
53 64
60 350
114 559
103 559
43 288
26 217
32 288
123 635
38 39
90 467
79 467
127 138
19 196
8 196
56 334
9 21
86 97
98 498
135 636
12 166
68 79
118 574
27 38
91 468
107 574
71 72
127 650
74 406
57 335
119 130
42 54
101 112
130 661
60 71
104 105
70 390
59 390
75 87
13 14
45 46
34 46
142 662
93 104
105 106
16 28
108 120
46 47
78 79
67 79
73 400
62 400
126 137
56 338
45 338
29 232
49 61
83 441
138 139
19 20
8 20
118 569
92 517
79 80
91 472
59 349
42 278
94 477
72 440
25 216
84 442
82 94
20 21
138 651
52 53
41 53
22 201
104 518
70 385
48 348
112 113
23 35
14 215
134 635
52 318
115 127
53 54
74 86
60 349
44 332
114 558
103 558
56 68
123 634
11 164
26 27
15 27
107 528
106 572
90 466
86 87
79 466
127 604
56 333
82 480
89 101
12 165
27 28
135 635
48 60
10 204
119 120
128 614
30 42
117 614
30 280
1 2
69 384
22 34
34 45
93 94
45 292
124 594
7 18
67 78
73 399
62 399
126 127
29 231
83 440
55 332
8 19
92 516
100 111
59 348
42 277
72 439
25 215
138 650
40 316
41 52
93 480
130 664
48 347
134 634
69 388
52 317
58 388
74 85
122 134
114 557
44 331
103 557
141 660
123 633
11 163
15 26
107 527
59 60
90 465
79 465
21 204
127 603
107 118
109 582
48 59
92 93
10 203
30 279
63 75
68 382
57 382
110 537
33 34
81 92
4 16
103 516
44 290
33 290
125 126
69 383
123 592
112 592
22 33
34 35
66 67
106 530
95 530
62 353
114 125
45 291
37 49
7 8
124 593
